77 77
49 38
47 17
75 31
65 11
31 1
44 22
63 33
37 13
11 33
3 23
57 23
54 29
26 22
41 11
68 32
76 10
9 7
58 24
21 24
35 19
67 27
56 9
27 19
39 2
25 35
42 29
71 28
13 36
55 1
48 15
4 4
70 6
50 35
38 16
24 20
36 3
20 8
2 16
60 34
62 27
1 20
7 10
69 37
34 21
14 4
59 38
10 18
74 30
30 30
73 9
28 25
23 32
32 17
77 13
16 34
52 21
43 15
5 28
64 39
18 14
53 26
33 5
12 12
45 31
6 12
51 3
22 37
66 6
29 8
8 36
15 7
61 14
40 25
19 5
46 2
17 26
72 18
